31 88 62 19 11 64 49 36 47 48 18 89 
52 7 82 8 46 45 83 60 5 84 17 86 38 14 43 41 22 74 58 
6 95 59 99 93 98 37 100 91 44 16 61 85 92 97 96 94 13 
27 69 70 30 32 90 63 10 
87 42 15 57 2 40 26 12 80 29 24 25 55 54 68 3 77 
28 76 50 33 81 79 78 34 35 71 65 66 20 9 51 1 
53 21 73 72 75 56 23 67 39 4 
